decision_x1=[0,4];
decision_x2=[0,4];
decision_x3=[0,4];
decision_x4=[0,4];
decision_x5=[0,4];
decision_x6=[0,4];
decision_x7=[0,4];
decision_x8=[0,4];
decision_x9=[0,4];
decision_x10=[0,4];
decision_x11=[0,4];
decision_x12=[0,4];
random_y1=[0,4];
random_y2=[0,4];
random_y3=[0,4];
random_y4=[0,4];
random_y5=[0,4];
random_y6=[0,4];
constraint_x2_x1=[
0,1,0.88|
0,2,0.1|
0,3,9.4|
0,4,1.8|
1,0,7.8|
1,2,8.3|
1,3,2.6|
1,4,5.7|
2,0,5.7|
2,1,6.3|
2,3,4.8|
2,4,4.8|
3,0,7.1|
3,1,4.7|
3,2,4.5|
3,4,6.7|
4,0,8.2|
4,1,6.4|
4,2,0.094|
4,3,7.1|
];
constraint_x3_x2=[
0,1,8.4|
0,2,2.5|
0,3,4.2|
0,4,8.2|
1,0,8.2|
1,2,4.5|
1,3,3.2|
1,4,2.9|
2,0,5.2|
2,1,8.3|
2,3,8|
2,4,6.9|
3,0,5.3|
3,1,1.2|
3,2,2.2|
3,4,0.47|
4,0,0.32|
4,1,9.4|
4,2,0.87|
4,3,4.8|
];
constraint_x4_x2=[
0,1,2.9|
0,2,4.9|
0,3,2.5|
0,4,6.7|
1,0,4.7|
1,2,0.43|
1,3,8.8|
1,4,8.7|
2,0,2.5|
2,1,3.2|
2,3,9.8|
2,4,7.3|
3,0,4.9|
3,1,4.4|
3,2,4.6|
3,4,4.1|
4,0,4.4|
4,1,3.7|
4,2,4.7|
4,3,2.1|
];
constraint_x4_x3=[
0,1,3|
0,2,9.4|
0,3,6.2|
0,4,0.56|
1,0,4.8|
1,2,7.3|
1,3,2.7|
1,4,5.2|
2,0,5.8|
2,1,4.2|
2,3,9.9|
2,4,2.3|
3,0,2.3|
3,1,6.6|
3,2,2.5|
3,4,8|
4,0,7.3|
4,1,8.4|
4,2,0.85|
4,3,3.4|
];
constraint_x5_x1=[
0,1,4.7|
0,2,8.5|
0,3,2.9|
0,4,7.6|
1,0,9.3|
1,2,3.4|
1,3,0.13|
1,4,4.6|
2,0,1.9|
2,1,3.6|
2,3,4|
2,4,1.2|
3,0,6.9|
3,1,5.3|
3,2,7.4|
3,4,9.6|
4,0,8.6|
4,1,3.4|
4,2,5.8|
4,3,7.2|
];
constraint_x5_x3=[
0,1,0.56|
0,2,7.4|
0,3,4|
0,4,8.6|
1,0,0.55|
1,2,5.7|
1,3,9|
1,4,5.7|
2,0,5.6|
2,1,2.4|
2,3,8.1|
2,4,5.2|
3,0,6.6|
3,1,3.5|
3,2,2.5|
3,4,4.4|
4,0,4.6|
4,1,9|
4,2,9.9|
4,3,2.4|
];
constraint_x5_x4=[
0,1,2.7|
0,2,8.2|
0,3,3.7|
0,4,3.2|
1,0,7.1|
1,2,5.6|
1,3,2.9|
1,4,3.9|
2,0,0.44|
2,1,3.7|
2,3,5.9|
2,4,2.9|
3,0,1.8|
3,1,7.3|
3,2,8.9|
3,4,4.9|
4,0,10|
4,1,3.7|
4,2,8.4|
4,3,5.7|
];
constraint_x6_x2=[
0,1,9.2|
0,2,0.93|
0,3,4.4|
0,4,2.5|
1,0,9.4|
1,2,0.81|
1,3,8.1|
1,4,8|
2,0,0.75|
2,1,2|
2,3,7.8|
2,4,2|
3,0,5.7|
3,1,7.3|
3,2,3|
3,4,1.8|
4,0,7|
4,1,1.4|
4,2,4.2|
4,3,2.1|
];
constraint_x6_x5=[
0,1,9.2|
0,2,2.7|
0,3,1.4|
0,4,7|
1,0,8.9|
1,2,4.8|
1,3,5.8|
1,4,3.3|
2,0,5.7|
2,1,2.8|
2,3,8.1|
2,4,4.9|
3,0,9.9|
3,1,3.3|
3,2,6.5|
3,4,1.6|
4,0,4.2|
4,1,0.53|
4,2,7.1|
4,3,1.4|
];
constraint_x7_x5=[
0,1,7.4|
0,2,3.4|
0,3,9.2|
0,4,6.5|
1,0,5.5|
1,2,10|
1,3,3.3|
1,4,7.4|
2,0,1.6|
2,1,5.8|
2,3,8.7|
2,4,1.1|
3,0,8.6|
3,1,8.1|
3,2,8.4|
3,4,1.2|
4,0,9.4|
4,1,6.3|
4,2,4.2|
4,3,0.72|
];
constraint_x7_x6=[
0,1,5.3|
0,2,9.3|
0,3,9.8|
0,4,1.6|
1,0,5.2|
1,2,3.3|
1,3,4.3|
1,4,7.6|
2,0,3.8|
2,1,9.3|
2,3,9.1|
2,4,0.93|
3,0,9|
3,1,6.2|
3,2,3.1|
3,4,6.2|
4,0,8|
4,1,8|
4,2,9.2|
4,3,5.5|
];
constraint_x8_x2=[
0,1,3.6|
0,2,1.5|
0,3,0.24|
0,4,5.3|
1,0,5.4|
1,2,3.9|
1,3,9.3|
1,4,7.8|
2,0,7.1|
2,1,5|
2,3,2.6|
2,4,8.9|
3,0,6.1|
3,1,3|
3,2,3.9|
3,4,1.4|
4,0,6.1|
4,1,6.5|
4,2,1.1|
4,3,0.72|
];
constraint_x8_x3=[
0,1,8.8|
0,2,1.9|
0,3,4.8|
0,4,6.5|
1,0,9.5|
1,2,9.9|
1,3,1.2|
1,4,7.3|
2,0,2.5|
2,1,6.8|
2,3,4.7|
2,4,1.9|
3,0,2.3|
3,1,0.6|
3,2,1.6|
3,4,7.2|
4,0,9.8|
4,1,9|
4,2,3.7|
4,3,6.4|
];
constraint_x8_x6=[
0,1,9.4|
0,2,7.4|
0,3,2|
0,4,3.9|
1,0,6.4|
1,2,1.4|
1,3,0.71|
1,4,7.9|
2,0,0.96|
2,1,5.4|
2,3,9|
2,4,0.085|
3,0,7.1|
3,1,3.7|
3,2,0.8|
3,4,9.7|
4,0,2.6|
4,1,5.2|
4,2,8.5|
4,3,6.3|
];
constraint_x9_x1=[
0,1,2.3|
0,2,9.5|
0,3,6.2|
0,4,7.5|
1,0,7.1|
1,2,0.52|
1,3,2.6|
1,4,5.6|
2,0,3.3|
2,1,9.1|
2,3,6.4|
2,4,9.3|
3,0,4.8|
3,1,4.4|
3,2,7.2|
3,4,1.4|
4,0,9.4|
4,1,9.7|
4,2,1.5|
4,3,2.9|
];
constraint_x9_x3=[
0,1,2.3|
0,2,7.8|
0,3,1.7|
0,4,7.5|
1,0,2.3|
1,2,3.2|
1,3,1.4|
1,4,4.5|
2,0,4.2|
2,1,8.1|
2,3,0.15|
2,4,9|
3,0,9.7|
3,1,4.5|
3,2,7.9|
3,4,7|
4,0,4.3|
4,1,8.5|
4,2,1.6|
4,3,6.6|
];
constraint_x9_x4=[
0,1,7.7|
0,2,0.8|
0,3,4.2|
0,4,5.5|
1,0,1.6|
1,2,0.78|
1,3,2.3|
1,4,8.1|
2,0,0.12|
2,1,9.6|
2,3,0.68|
2,4,8.3|
3,0,1.2|
3,1,3.4|
3,2,2|
3,4,4.1|
4,0,9.3|
4,1,8.3|
4,2,3.1|
4,3,6.4|
];
constraint_x9_x6=[
0,1,8.8|
0,2,5.9|
0,3,0.59|
0,4,0.53|
1,0,1.8|
1,2,5.2|
1,3,6.5|
1,4,2.4|
2,0,6|
2,1,5.8|
2,3,4.9|
2,4,4.4|
3,0,4.2|
3,1,1|
3,2,5.7|
3,4,8.5|
4,0,4.5|
4,1,5.1|
4,2,6.7|
4,3,1.9|
];
constraint_x9_x8=[
0,1,3.7|
0,2,8.7|
0,3,9|
0,4,2.5|
1,0,8.4|
1,2,9.8|
1,3,2.7|
1,4,5|
2,0,0.14|
2,1,5.8|
2,3,1.7|
2,4,8.3|
3,0,7.3|
3,1,6.5|
3,2,0.34|
3,4,5.1|
4,0,1.9|
4,1,3.3|
4,2,4.7|
4,3,3.8|
];
constraint_x10_x2=[
0,1,4|
0,2,1.3|
0,3,7.6|
0,4,1.3|
1,0,1.9|
1,2,1.8|
1,3,7.4|
1,4,5.5|
2,0,2|
2,1,3|
2,3,2.5|
2,4,8.8|
3,0,2.6|
3,1,2.6|
3,2,8|
3,4,7.7|
4,0,9.2|
4,1,8.2|
4,2,1.7|
4,3,0.91|
];
constraint_x10_x5=[
0,1,3.8|
0,2,1.1|
0,3,0.23|
0,4,8.5|
1,0,7.5|
1,2,4.7|
1,3,3.9|
1,4,2.3|
2,0,4.4|
2,1,4.5|
2,3,7.6|
2,4,5.5|
3,0,8.4|
3,1,5.8|
3,2,8.4|
3,4,4|
4,0,4.1|
4,1,0.4|
4,2,2.8|
4,3,3.5|
];
constraint_x10_x7=[
0,1,4.2|
0,2,5.4|
0,3,2.6|
0,4,3|
1,0,0.13|
1,2,5.8|
1,3,2.4|
1,4,2.2|
2,0,0.21|
2,1,1.6|
2,3,9.5|
2,4,7.8|
3,0,4.3|
3,1,3.1|
3,2,6.2|
3,4,5.8|
4,0,8.5|
4,1,7.9|
4,2,2|
4,3,4.8|
];
constraint_x10_x8=[
0,1,0.17|
0,2,9.5|
0,3,4.7|
0,4,3|
1,0,4.5|
1,2,9.1|
1,3,1.2|
1,4,6.1|
2,0,5.3|
2,1,6.8|
2,3,5.5|
2,4,2.1|
3,0,3.9|
3,1,2.2|
3,2,2.1|
3,4,3.2|
4,0,8.8|
4,1,7.6|
4,2,2.7|
4,3,6.7|
];
constraint_x10_x9=[
0,1,1.1|
0,2,7.9|
0,3,8.9|
0,4,7.5|
1,0,1.6|
1,2,8.7|
1,3,6.2|
1,4,4.6|
2,0,1.3|
2,1,3.3|
2,3,5.5|
2,4,6.6|
3,0,9.7|
3,1,2.9|
3,2,3.2|
3,4,8.2|
4,0,0.72|
4,1,2.1|
4,2,8.5|
4,3,5.7|
];
constraint_x11_x7=[
0,1,8.2|
0,2,0.7|
0,3,3.6|
0,4,5.2|
1,0,2.4|
1,2,1.1|
1,3,6.7|
1,4,5.2|
2,0,8.2|
2,1,9.2|
2,3,0.27|
2,4,4.6|
3,0,0.4|
3,1,3|
3,2,8|
3,4,4.4|
4,0,2.9|
4,1,3|
4,2,5.5|
4,3,1.8|
];
constraint_x11_x10=[
0,1,6.2|
0,2,7|
0,3,0.85|
0,4,1.7|
1,0,6.2|
1,2,2.2|
1,3,1|
1,4,9.8|
2,0,0.37|
2,1,10|
2,3,2|
2,4,3.4|
3,0,6.1|
3,1,5.5|
3,2,5.8|
3,4,2|
4,0,0.069|
4,1,7.2|
4,2,1.7|
4,3,9.4|
];
constraint_x12_x1=[
0,1,9.1|
0,2,8.6|
0,3,7.1|
0,4,6.1|
1,0,6.7|
1,2,6.4|
1,3,5.1|
1,4,9|
2,0,4.2|
2,1,2.1|
2,3,2.5|
2,4,8.5|
3,0,1|
3,1,7.5|
3,2,2|
3,4,8.5|
4,0,2.8|
4,1,0.38|
4,2,3.8|
4,3,2|
];
constraint_x12_x3=[
0,1,4.7|
0,2,0.97|
0,3,1.4|
0,4,2.3|
1,0,6.4|
1,2,9.2|
1,3,0.8|
1,4,7.7|
2,0,9.1|
2,1,2|
2,3,7.7|
2,4,0.023|
3,0,3.1|
3,1,9.7|
3,2,6.8|
3,4,6.7|
4,0,5|
4,1,9.3|
4,2,8.1|
4,3,4.3|
];
constraint_x12_x7=[
0,1,2.1|
0,2,1.7|
0,3,4.9|
0,4,0.058|
1,0,8.6|
1,2,5.2|
1,3,9.8|
1,4,6.7|
2,0,6.6|
2,1,5.1|
2,3,7.5|
2,4,8.9|
3,0,6|
3,1,0.87|
3,2,5.1|
3,4,7.5|
4,0,9.4|
4,1,6|
4,2,6.4|
4,3,3.7|
];
constraint_x12_x8=[
0,1,4.2|
0,2,5.3|
0,3,3.6|
0,4,9.9|
1,0,6|
1,2,0.55|
1,3,0.74|
1,4,1.9|
2,0,7.5|
2,1,6.8|
2,3,7.7|
2,4,9.2|
3,0,3.2|
3,1,5.7|
3,2,0.82|
3,4,0.29|
4,0,6.2|
4,1,3.1|
4,2,8.2|
4,3,0.28|
];
constraint_x12_x9=[
0,1,5|
0,2,8.3|
0,3,6.7|
0,4,7.9|
1,0,5.4|
1,2,4|
1,3,2.9|
1,4,1.1|
2,0,5|
2,1,0.15|
2,3,3.8|
2,4,8.8|
3,0,1.9|
3,1,0.74|
3,2,4.7|
3,4,9.5|
4,0,3.2|
4,1,8|
4,2,8.3|
4,3,4.9|
];
constraint_x12_x10=[
0,1,1|
0,2,1.5|
0,3,3|
0,4,6.9|
1,0,8.7|
1,2,2.6|
1,3,6.3|
1,4,4.7|
2,0,1.7|
2,1,6.2|
2,3,4.7|
2,4,8.8|
3,0,2.6|
3,1,9.2|
3,2,5.2|
3,4,0.097|
4,0,7.6|
4,1,1.2|
4,2,9.7|
4,3,2.9|
];
constraint_x12_x11=[
0,1,0.15|
0,2,7.8|
0,3,9.5|
0,4,8.3|
1,0,9.2|
1,2,4.9|
1,3,0.5|
1,4,2.6|
2,0,0.34|
2,1,2.6|
2,3,3|
2,4,9.2|
3,0,3.9|
3,1,0.62|
3,2,6.2|
3,4,2.5|
4,0,8.1|
4,1,3.8|
4,2,0.031|
4,3,0.11|
];
constraint_x1_y1=[
0,0,5.3|
0,1,9.5|
0,2,3.7|
0,3,9.8|
0,4,9.9|
1,0,9.6|
1,1,3.2|
1,2,2.3|
1,3,3.8|
1,4,3.4|
2,0,7.1|
2,1,0.037|
2,2,3.8|
2,3,7.7|
2,4,1.4|
3,0,2.4|
3,1,2.7|
3,2,3.5|
3,3,4.4|
3,4,5.8|
4,0,1.8|
4,1,1.2|
4,2,6.4|
4,3,0.49|
4,4,6.4|
];
constraint_x2_y2=[
0,0,9.8|
0,1,9.5|
0,2,7.3|
0,3,9.6|
0,4,0.25|
1,0,2.9|
1,1,1.4|
1,2,1.1|
1,3,1.3|
1,4,3.1|
2,0,2.1|
2,1,8.1|
2,2,3.4|
2,3,7.6|
2,4,1.7|
3,0,9.8|
3,1,8.9|
3,2,7.2|
3,3,9.5|
3,4,9.2|
4,0,2|
4,1,5.9|
4,2,6|
4,3,1.7|
4,4,2.8|
];
constraint_x3_y3=[
0,0,0.91|
0,1,1.5|
0,2,0.65|
0,3,8.8|
0,4,8.3|
1,0,9.2|
1,1,6.4|
1,2,0.73|
1,3,8.2|
1,4,6.8|
2,0,3.8|
2,1,0.93|
2,2,1.4|
2,3,6.8|
2,4,8.5|
3,0,8.5|
3,1,1.9|
3,2,2.1|
3,3,9.5|
3,4,5|
4,0,2.8|
4,1,0.67|
4,2,7.3|
4,3,1.9|
4,4,0.62|
];
constraint_x4_y4=[
0,0,2.9|
0,1,9.1|
0,2,6.4|
0,3,0.48|
0,4,8.1|
1,0,2.3|
1,1,8.9|
1,2,8.1|
1,3,9.9|
1,4,4.6|
2,0,10|
2,1,9.8|
2,2,2.4|
2,3,7.9|
2,4,2.1|
3,0,1.6|
3,1,0.58|
3,2,6.4|
3,3,5|
3,4,1.2|
4,0,9.3|
4,1,0.86|
4,2,3.2|
4,3,7.4|
4,4,3.5|
];
constraint_x5_y5=[
0,0,5.6|
0,1,6.4|
0,2,3.8|
0,3,0.73|
0,4,9.4|
1,0,6.8|
1,1,8.7|
1,2,6.6|
1,3,1.2|
1,4,5|
2,0,6.3|
2,1,3.4|
2,2,4.8|
2,3,4.9|
2,4,6.6|
3,0,2.9|
3,1,0.086|
3,2,3.2|
3,3,7.4|
3,4,2.9|
4,0,5.8|
4,1,3.4|
4,2,9|
4,3,4.3|
4,4,6.4|
];
constraint_x6_y6=[
0,0,2.3|
0,1,5.5|
0,2,2.8|
0,3,1.7|
0,4,6.5|
1,0,4.5|
1,1,8.3|
1,2,3.7|
1,3,5.1|
1,4,7.2|
2,0,4.6|
2,1,2.2|
2,2,0.63|
2,3,10|
2,4,1|
3,0,1.9|
3,1,4.7|
3,2,9.2|
3,3,3.9|
3,4,9.4|
4,0,8.4|
4,1,1.6|
4,2,4.1|
4,3,2|
4,4,5.7|
];
initial_distribution_y1=[0.19,0.39,0.14,0.23,0.05];
initial_distribution_y2=[0.18,0.11,0.3,0.25,0.16];
initial_distribution_y3=[0.25,0.16,0.25,0.13,0.21];
initial_distribution_y4=[0.3,0.12,0.2,0.066,0.31];
initial_distribution_y5=[0.12,0.12,0.057,0.34,0.36];
initial_distribution_y6=[0.22,0.13,0.16,0.29,0.19];
transition_y1=[
0.3,0.34,0.17,0.032,0.17|
0.18,0.084,0.16,0.32,0.26|
0.3,0.19,0.1,0.13,0.27|
0.25,0.3,0.14,0.019,0.29|
0.15,0.24,0.25,0.26,0.1|
];
transition_y2=[
0.089,0.28,0.23,0.25,0.15|
0.16,0.21,0.12,0.29,0.23|
0.1,0.2,0.29,0.29,0.12|
0.39,0.25,0.13,0.21,0.023|
0.15,0.26,0.051,0.39,0.16|
];
transition_y3=[
0.3,0.25,0.4,0.0059,0.042|
0.053,0.32,0.053,0.39,0.19|
0.093,0.32,0.089,0.38,0.11|
0.061,0.36,0.38,0.16,0.036|
0.33,0.27,0.23,0.065,0.1|
];
transition_y4=[
0.075,0.15,0.05,0.33,0.39|
0.27,0.25,0.07,0.15,0.26|
0.2,0.18,0.17,0.23,0.22|
0.34,0.048,0.24,0.071,0.3|
0.15,0.19,0.026,0.14,0.5|
];
transition_y5=[
0.26,0.22,0.16,0.072,0.28|
0.34,0.027,0.031,0.4,0.21|
0.18,0.27,0.14,0.22,0.19|
0.14,0.19,0.053,0.44,0.17|
0.048,0.34,0.33,0.077,0.2|
];
transition_y6=[
0.11,0.29,0.061,0.34,0.19|
0.14,0.23,0.3,0.27,0.064|
0.11,0.16,0.52,0.1,0.096|
0.13,0.09,0.25,0.34,0.19|
0.046,0.14,0.051,0.64,0.13|
];
